% From JaCoP's nonogramRepository/data113.nin
 rows = 25;
 row_rule_len = 6;
 row_rules = array2d(1..rows, 1..row_rule_len, 
[
 0,0,0,0,0,2,
 0,0,0,0,0,2,
 0,0,0,0,0,2,
 0,0,0,0,0,20,
 0,0,0,0,1,1,
 0,2,4,5,5,1,
 0,1,4,5,5,1,
 0,2,5,5,5,1,
 0,1,5,5,5,1,
 0,2,6,5,5,1,
 0,0,0,0,1,1,
 0,0,0,0,0,24,
 0,0,0,0,2,1,
 0,0,0,1,2,1,
 0,0,0,1,2,1,
 0,0,0,1,6,1,
 0,0,1,5,6,6,
 1,2,2,2,2,2,
 4,3,2,2,2,3,
 0,3,5,2,2,5,
 0,0,0,7,6,7,
 0,0,3,3,3,3,
 0,0,0,0,7,7,
 0,0,0,0,5,5,
 0,0,0,0,3,3
]);

 cols = 25;
 col_rule_len = 6;
 col_rules = array2d(1..cols, 1..col_rule_len, 
[
 0,0,0,0,0,8,
 0,0,0,0,2,2,
 0,0,0,0,3,2,
 0,0,3,1,2,3,
 0,0,3,1,2,5,
 0,3,1,1,1,7,
 1,3,1,1,3,3,
 0,1,5,1,1,7,
 0,1,5,1,2,5,
 0,4,5,1,2,3,
 0,0,4,5,1,2,
 0,0,1,1,2,2,
 0,1,5,1,2,1,
 0,1,5,1,6,1,
 0,1,5,1,6,1,
 0,1,5,1,2,1,
 0,1,5,1,2,2,
 0,0,0,1,1,2,
 0,1,5,1,2,3,
 0,1,5,1,2,5,
 0,1,5,1,1,7,
 1,5,1,1,3,3,
 0,1,5,1,1,7,
 0,0,1,1,2,5,
 0,0,0,0,15,3
]);

